NAME /Users/henri/Research/solvers/instances/idol-instances/robust/collection/cbp_Subramanyam_et_al_2020/CapBud_N15_0/models/uncertain_technology_matrix/
ROWS
 N  OBJ
 L  capacity
 L  c_1135
 L  c_1136
 L  c_1137
 L  c_1138
 L  c_1139
 L  c_1140
 L  c_1141
 L  c_1142
 L  c_1143
 L  c_1144
 L  c_1145
 L  c_1146
 L  c_1147
 L  c_1148
 L  c_1149
COLUMNS
    MARKER    'MARKER'                 'INTORG'
    x_0        OBJ        3.32237
    x_0        c_1135     1
    x_0        capacity   0.664475
    x_1        OBJ        5.26894
    x_1        c_1136     1
    x_1        capacity   1.05379
    x_2        OBJ        9.82743
    x_2        c_1137     1
    x_2        capacity   1.96549
    x_3        OBJ        1.25084
    x_3        c_1138     1
    x_3        capacity   0.250168
    x_4        OBJ        5.69266
    x_4        c_1139     1
    x_4        capacity   1.13853
    x_5        OBJ        2.91381
    x_5        c_1140     1
    x_5        capacity   0.582762
    x_6        OBJ        5.6062
    x_6        c_1141     1
    x_6        capacity   1.12124
    x_7        OBJ        8.69717
    x_7        c_1142     1
    x_7        capacity   1.73943
    x_8        OBJ        6.73399
    x_8        c_1143     1
    x_8        capacity   1.3468
    x_9        OBJ        9.40971
    x_9        c_1144     1
    x_9        capacity   1.88194
    x_10       OBJ        7.43312
    x_10       c_1145     1
    x_10       capacity   1.48662
    x_11       OBJ        5.10287
    x_11       c_1146     1
    x_11       capacity   1.02057
    x_12       OBJ        1.38727
    x_12       c_1147     1
    x_12       capacity   0.277454
    x_13       OBJ        1.0376
    x_13       c_1148     1
    x_13       capacity   0.207521
    x_14       OBJ        3.19615
    x_14       c_1149     1
    x_14       capacity   0.63923
    y_0        OBJ        2.6579
    y_0        c_1135     1
    y_0        capacity   0.664475
    y_1        OBJ        4.21515
    y_1        c_1136     1
    y_1        capacity   1.05379
    y_2        OBJ        7.86195
    y_2        c_1137     1
    y_2        capacity   1.96549
    y_3        OBJ        1.00067
    y_3        c_1138     1
    y_3        capacity   0.250168
    y_4        OBJ        4.55413
    y_4        c_1139     1
    y_4        capacity   1.13853
    y_5        OBJ        2.33105
    y_5        c_1140     1
    y_5        capacity   0.582762
    y_6        OBJ        4.48496
    y_6        c_1141     1
    y_6        capacity   1.12124
    y_7        OBJ        6.95774
    y_7        c_1142     1
    y_7        capacity   1.73943
    y_8        OBJ        5.3872
    y_8        c_1143     1
    y_8        capacity   1.3468
    y_9        OBJ        7.52777
    y_9        c_1144     1
    y_9        capacity   1.88194
    y_10       OBJ        5.9465
    y_10       c_1145     1
    y_10       capacity   1.48662
    y_11       OBJ        4.0823
    y_11       c_1146     1
    y_11       capacity   1.02057
    y_12       OBJ        1.10982
    y_12       c_1147     1
    y_12       capacity   0.277454
    y_13       OBJ        0.830083
    y_13       c_1148     1
    y_13       capacity   0.207521
    y_14       OBJ        2.55692
    y_14       c_1149     1
    y_14       capacity   0.63923
    MARKER    'MARKER'                 'INTEND'
RHS
    RHS       capacity   38.4401
    RHS       c_1135     1
    RHS       c_1136     1
    RHS       c_1137     1
    RHS       c_1138     1
    RHS       c_1139     1
    RHS       c_1140     1
    RHS       c_1141     1
    RHS       c_1142     1
    RHS       c_1143     1
    RHS       c_1144     1
    RHS       c_1145     1
    RHS       c_1146     1
    RHS       c_1147     1
    RHS       c_1148     1
    RHS       c_1149     1
BOUNDS
 LI BND       x_0        0
 UI BND       x_0        1
 LI BND       x_1        0
 UI BND       x_1        1
 LI BND       x_2        0
 UI BND       x_2        1
 LI BND       x_3        0
 UI BND       x_3        1
 LI BND       x_4        0
 UI BND       x_4        1
 LI BND       x_5        0
 UI BND       x_5        1
 LI BND       x_6        0
 UI BND       x_6        1
 LI BND       x_7        0
 UI BND       x_7        1
 LI BND       x_8        0
 UI BND       x_8        1
 LI BND       x_9        0
 UI BND       x_9        1
 LI BND       x_10       0
 UI BND       x_10       1
 LI BND       x_11       0
 UI BND       x_11       1
 LI BND       x_12       0
 UI BND       x_12       1
 LI BND       x_13       0
 UI BND       x_13       1
 LI BND       x_14       0
 UI BND       x_14       1
 LI BND       y_0        0
 UI BND       y_0        1
 LI BND       y_1        0
 UI BND       y_1        1
 LI BND       y_2        0
 UI BND       y_2        1
 LI BND       y_3        0
 UI BND       y_3        1
 LI BND       y_4        0
 UI BND       y_4        1
 LI BND       y_5        0
 UI BND       y_5        1
 LI BND       y_6        0
 UI BND       y_6        1
 LI BND       y_7        0
 UI BND       y_7        1
 LI BND       y_8        0
 UI BND       y_8        1
 LI BND       y_9        0
 UI BND       y_9        1
 LI BND       y_10       0
 UI BND       y_10       1
 LI BND       y_11       0
 UI BND       y_11       1
 LI BND       y_12       0
 UI BND       y_12       1
 LI BND       y_13       0
 UI BND       y_13       1
 LI BND       y_14       0
 UI BND       y_14       1
ENDATA
